(set-logic QF_S)
(set-option :strings-exp true)
(set-option :produce-models true)
(declare-fun sigmaStar_0 () String)
(declare-fun sigmaStar_1 () String)
(declare-fun sigmaStar_4 () String)
(declare-fun sigmaStar_5 () String)
(declare-fun sigmaStar_7 () String)
(declare-fun sigmaStar_9 () String)
(declare-fun sigmaStar_10 () String)
(declare-fun literal_12 () String)
(declare-fun x_11 () String)
(declare-fun x_13 () String)
(declare-fun literal_14 () String)
(declare-fun x_15 () String)
(assert (= literal_12 "\x3c\x69\x6e\x70\x75\x74\x20\x74\x79\x70\x65\x3d\x22\x68\x69\x64\x64\x65\x6e\x22\x20\x6e\x61\x6d\x65\x3d\x22\x73\x65\x61\x72\x63\x68\x22\x20\x76\x61\x6c\x75\x65\x3d\x22"))
(assert (or (= x_11 sigmaStar_9) (= x_11 sigmaStar_4)))
(assert (= x_13 (str.++ literal_12 x_11)))
(assert (= literal_14 "\x22\x3e"))
(assert (= x_15 (str.++ x_13 literal_14)))
(assert (str.in.re x_15 (re.++ (re.* re.allchar) (re.++ (str.to.re "\x5c\x3c\x53\x43\x52\x49\x50\x54") (re.* re.allchar)))))
(check-sat)
(get-model)
